1 1 -2 0
1 1 3 0
1 -1 -4 0
1 1 5 0
1 6 -3 0
1 6 -1 0
1 6 -4 0
1 6 -5 0
1 7 8 0
1 -7 9 0
1 -7 -2 0
1 7 -5 0
1 -9 -10 0
1 -9 8 0
1 9 3 0
1 9 -7 0
1 -9 -4 0
1 -9 5 0
1 3 -11 0
1 -3 12 0
1 -3 -9 0
1 -3 -6 0
1 3 -13 0
1 -3 14 0
1 -3 7 0
1 -3 1 0
1 3 -5 0
1 5 15 0
1 5 -11 0
1 5 -16 0
1 -5 9 0
1 -5 6 0
1 -5 -3 0
1 -5 -17 0
1 -5 18 0
1 -5 14 0
1 -5 7 0
1 -2 11 0
1 -2 19 0
1 -2 20 0
1 -2 9 0
1 -2 6 0
1 -2 -21 0
1 -2 -17 0
1 -2 -22 0
1 2 7 0
1 -2 -1 0
1 -2 -4 0
1 -4 11 0
1 4 19 0
1 4 9 0
1 4 2 0
1 4 -17 0
1 -4 23 0
1 -4 22 0
1 -4 7 0
1 -4 1 0
1 -4 -24 0
1 14 -10 0
1 14 8 0
1 14 12 0
1 14 -25 0
1 -14 -26 0
1 14 5 0
1 -12 -8 0
1 -12 20 0
1 -12 3 0
1 -12 -25 0
1 12 26 0
1 -12 14 0
1 -12 5 0
1 -18 -10 0
1 -18 -16 0
1 18 -27 0
1 18 -28 0
1 -18 3 0
1 18 25 0
1 18 -29 0
1 -18 -23 0
1 -18 30 0
1 -18 5 0
1 16 -10 0
1 -16 27 0
1 16 -19 0
1 16 28 0
1 -16 25 0
1 -16 -26 0
1 16 -29 0
1 -16 30 0
1 -16 -5 0
1 -26 -31 0
1 26 -16 0
1 26 -12 0
1 -26 -9 0
1 26 -32 0
1 26 -33 0
1 26 34 0
1 -26 -14 0
1 -26 -7 0
1 26 35 0
1 -8 31 0
1 8 36 0
1 8 -12 0
1 8 -9 0
1 8 -33 0
1 -8 -34 0
1 -8 -26 0
1 -8 18 0
1 8 14 0
1 -25 -10 0
1 -25 37 0
1 25 12 0
1 25 -9 0
1 25 32 0
1 -25 -38 0
1 -25 14 0
1 -25 35 0
1 10 37 0
1 -10 -11 0
1 10 -16 0
1 -10 -12 0
1 -10 -9 0
1 10 -32 0
1 10 25 0
1 -10 38 0
1 -10 17 0
1 10 -18 0
1 10 14 0
1 10 -7 0
1 10 -35 0
1 34 8 0
1 -34 27 0
1 34 28 0
1 34 -17 0
1 -34 -29 0
1 36 -8 0
1 36 11 0
1 36 27 0
1 -36 -28 0
1 36 34 0
1 -36 -26 0
1 36 29 0
1 -36 -30 0
1 33 8 0
1 33 28 0
1 -33 38 0
1 -33 -26 0
1 -33 29 0
1 -33 -30 0
1 -31 37 0
1 -31 -28 0
1 -31 -33 0
1 -31 26 0
1 31 30 0
1 -30 -31 0
1 -30 36 0
1 30 16 0
1 -30 -28 0
1 30 -33 0
1 30 34 0
1 28 31 0
1 -28 36 0
1 28 -16 0
1 28 -33 0
1 28 34 0
1 28 -18 0
1 -28 -30 0
1 -29 31 0
1 29 -36 0
1 -29 16 0
1 29 27 0
1 -29 32 0
1 29 -33 0
1 29 -34 0
1 -29 39 0
1 29 -35 0
1 -27 31 0
1 -27 36 0
1 -27 40 0
1 27 -32 0
1 -27 33 0
1 27 -34 0
1 27 -18 0
1 -27 -39 0
1 22 -41 0
1 22 20 0
1 -22 -42 0
1 22 2 0
1 22 -43 0
1 22 44 0
1 -22 4 0
1 20 41 0
1 20 -12 0
1 -20 -42 0
1 20 -2 0
1 -20 -43 0
1 20 -44 0
1 20 -22 0
1 -20 4 0
1 23 19 0
1 23 41 0
1 -23 45 0
1 -23 -46 0
1 23 -2 0
1 -23 -43 0
1 23 18 0
1 23 44 0
1 -23 -47 0
1 -23 4 0
1 -19 16 0
1 -19 41 0
1 -19 -42 0
1 -19 -45 0
1 -19 46 0
1 19 -2 0
1 -19 -23 0
1 19 -47 0
1 -19 -48 0
1 42 -44 0
1 42 -37 0
1 -42 11 0
1 42 19 0
1 -42 20 0
1 -42 38 0
1 42 23 0
1 42 22 0
1 44 11 0
1 44 19 0
1 44 20 0
1 -44 -42 0
1 44 38 0
1 -44 17 0
1 44 -23 0
1 44 22 0
1 41 -19 0
1 41 20 0
1 41 -43 0
1 -41 23 0
1 41 22 0
1 43 -19 0
1 43 20 0
1 43 23 0
1 43 22 0
1 -17 10 0
1 -17 -11 0
1 -17 -42 0
1 -17 -45 0
1 17 -46 0
1 -17 2 0
1 17 3 0
1 17 25 0
1 -17 34 0
1 17 44 0
1 17 47 0
1 -17 -48 0
1 17 5 0
1 -11 10 0
1 -11 -36 0
1 -11 45 0
1 11 -46 0
1 -11 -2 0
1 -11 -25 0
1 11 -17 0
1 -11 -44 0
1 -11 -47 0
1 11 -48 0
1 -11 -4 0
1 38 -15 0
1 -38 -10 0
1 -38 -37 0
1 38 -42 0
1 38 -45 0
1 -38 46 0
1 38 -21 0
1 38 -13 0
1 38 -25 0
1 -38 33 0
1 -38 44 0
1 -38 48 0
1 38 -24 0
1 -37 -15 0
1 37 31 0
1 -37 10 0
1 37 -42 0
1 37 -45 0
1 -37 -46 0
1 37 21 0
1 37 13 0
1 -37 -25 0
1 37 48 0
1 37 24 0
1 -46 -37 0
1 46 -11 0
1 46 40 0
1 -46 -38 0
1 46 -17 0
1 46 39 0
1 -46 -35 0
1 48 37 0
1 -48 -11 0
1 48 -46 0
1 48 -32 0
1 48 -38 0
1 -48 -17 0
1 48 -23 0
1 48 -39 0
1 48 -35 0
1 45 37 0
1 -45 11 0
1 -45 -19 0
1 45 38 0
1 -45 -17 0
1 -45 23 0
1 -45 47 0
1 -47 -37 0
1 -47 11 0
1 47 -19 0
1 -47 38 0
1 47 17 0
1 -47 23 0
1 -32 -15 0
1 32 -8 0
1 -32 27 0
1 32 -21 0
1 -32 25 0
1 -32 -13 0
1 -32 -26 0
1 -32 29 0
1 -32 -48 0
1 -32 -24 0
1 -32 35 0
1 -35 10 0
1 -35 -15 0
1 -35 8 0
1 35 -46 0
1 35 -21 0
1 35 32 0
1 35 -13 0
1 -35 -25 0
1 35 29 0
1 35 48 0
1 -35 24 0
1 -40 15 0
1 40 -27 0
1 -40 46 0
1 40 -21 0
1 40 -13 0
1 -40 29 0
1 -40 -48 0
1 -40 39 0
1 39 15 0
1 39 40 0
1 -39 21 0
1 39 13 0
1 39 -24 0
1 -39 -48 0
1 13 37 0
1 13 -40 0
1 -13 32 0
1 13 3 0
1 13 38 0
1 -13 -39 0
1 -13 35 0
1 -15 -37 0
1 -15 13 0
1 -15 -5 0
1 15 -39 0
1 15 -35 0
1 21 -37 0
1 21 40 0
1 21 2 0
1 21 32 0
1 21 -39 0
1 -21 -24 0
1 -24 -37 0
1 24 40 0
1 24 -21 0
1 -24 -32 0
1 24 -38 0
1 -24 4 0
1 -24 39 0
1 -24 -35 0
